135 136 139 140 141 151 150 149 152 148 147 142 143 144 146 145 158 157 153 156 159 155 154 165 164 166 167 163 168 162 160 161 113 131 114 112 111 110 115 116 128 127 126 125 124 117 106 105 104 103 547 546 545 544 543 541 542 107 109 108 173 174 172 170 169 171 175 176 177 178 179 180 181 182 183 185 184 194 195 196 197 198 199 200 201 202 204 203 208 207 206 205 209 210 211 212 213 214 215 216 217 223 224 222 221 220 218 219 193 192 191 190 226 225 189 227 228 229 186 188 187 540 538 539 537 536 484 485 486 487 535 534 488 533 230 231 532 489 531 530 233 232 234 235 236 238 239 240 237 509 510 511 513 512 527 528 529 490 491 492 493 525 526 523 521 522 514 515 516 517 520 524 494 495 518 519 498 502 503 504 506 507 508 302 301 303 304 307 505 308 309 310 311 451 501 500 499 452 453 440 441 450 449 448 447 446 442 443 444 445 381 380 379 378 377 376 375 373 374 315 314 316 312 313 305 306 318 317 319 320 321 322 323 324 297 298 299 300 257 256 241 242 243 244 245 246 247 248 249 250 251 252 254 253 255 261 260 259 258 262 263 264 265 266 267 296 295 294 291 292 293 270 269 268 271 272 273 274 275 290 289 288 276 277 278 279 282 281 280 287 286 285 284 283 334 335 336 337 338 339 333 332 331 330 340 341 343 344 345 346 347 348 349 350 351 352 415 416 414 413 353 354 355 357 358 359 360 361 362 363 364 365 342 366 329 328 325 326 327 367 368 369 370 398 397 394 396 371 372 395 393 391 392 390 389 388 387 386 385 383 384 409 408 407 406 405 404 399 400 403 401 402 356 412 411 410 418 417 419 420 421 422 423 424 425 382 426 427 428 429 431 430 432 433 434 435 436 437 438 439 454 455 456 457 458 459 460 461 462 463 497 496 464 465 466 467 468 469 470 471 472 473 474 475 482 483 481 476 480 479 477 478 548 549 560 561 562 563 564 565 566 567 568 569 570 571 572 573 0 1 2 3 4 5 6 7 8 9 10 17 18 19 20 14 15 16 11 13 12 23 21 24 25 26 27 28 29 22 31 30 32 33 34 35 36 37 38 40 41 39 42 43 44 45 46 47 48 49 54 53 55 56 83 57 58 59 60 61 63 62 79 80 81 82 84 51 52 50 91 555 556 557 558 559 550 551 101 100 102 98 99 552 553 554 97 96 95 94 93 92 90 85 86 87 89 88 78 77 76 64 75 74 73 119 118 120 121 122 123 71 72 65 66 67 68 70 69 138 137 129 130 132 133 134